Analysis/nRounds.lp
\ LP format - for model browsing. Use MPS format to capture full model detail.
Minimize
  C0 + C1 + C2 + C3 + C4 + C5 + C6 + C7 + C8 + C9 + C10 + C11 + C12 + C13
   + C14 + C15 + C16 + C17 + C18 + C19 + C20 + C21 + C22 + C23 + C24 + C25
   + C26 + C27 + C28 + C29 + C30 + C31 + C32 + C33 + C34 + C35 + C36 + C37
   + C38 + C39 + C40 + C41 + C42 + C43 + C44 + C45 + C46 + C47 + C48 + C49
   + C50 + C51 + C52 + C53 + C54 + C55 + C56 + C57 + C58 + C59 + C60 + C61
   + C62 + C63 + C64 + C65 + C66 + C67 + C68 + C69 + C70 + C71 + C72 + C73
   + C74 + C75 + C76 + C77 + C78 + C79 + C80 + C81 + C82 + C83 + C84 + C85
   + C86 + C87 + C88 + C89 + C90 + C91 + C92 + C93 + C94 + C95 + C96 + C97
   + C98 + C99 + C100 + C101 + C102 + C103 + C104 + C105 + C106 + C107
   + C108 + C109 + C110 + C111 + C112 + C113 + C114 + C115 + C116 + C117
   + C118 + C119 + C120 + C121 + C122 + C123 + C124 + C125 + C126 + C127
   + C128 + C129 + C130 + C131 + C132 + C133 + C134 + C135 + C136 + C137
   + C138 + C139 + C140 + C141 + C142 + C143 + C144 + C145 + C146 + C147
   + C148 + C149 + C150 + C151 + C152 + C153 + C154 + C155 + C156 + C157
   + C158 + C159 + C160 + C161 + C162 + C163 + C164 + C165 + C166 + C167
   + C168 + C169 + C170 + C171 + C172 + C173 + C174 + C175 + C176 + C177
   + C178 + C179 + C180 + C181 + C182 + C183 + C184 + C185 + C186 + C187
   + C188 + C189 + C190 + C191 + C192 + C193 + C194 + C195 + C196 + C197
   + C198 + C199 + C200 + C201 + C202 + C203 + C204 + C205 + C206 + C207
   + C208 + C209 + C210 + C211 + C212 + C213 + C214 + C215 + C216 + C217
   + C218 + C219 + C220 + C221 + C222 + C223
Subject To
 R0: C16 = 0
 R1: C17 = 0
 R2: C18 = 0
 R3: C19 = 1
 R4: C20 = 0
 R5: C21 = 0
 R6: C22 = 0
 R7: C23 = 0
 R8: C24 = 0
 R9: C25 = 0
 R10: C26 = 0
 R11: C27 = 1
 R12: C28 = 0
 R13: C29 = 0
 R14: C30 = 1
 R15: C31 = 1
 R16: C32 = 0
 R17: C33 = 0
 R18: C34 = 0
 R19: C35 = 1
 R20: C36 = 1
 R21: C37 = 1
 R22: C38 = 0
 R23: C39 = 0
 R24: C40 = 0
 R25: C41 = 0
 R26: C42 = 0
 R27: C43 = 1
 R28: C44 = 1
 R29: C45 = 1
 R30: C46 = 1
 R31: C47 = 1
 R32: - C0 + C176 = 0
 R33: - C17 + C96 >= 0
 R34: C17 + C96 >= 0
 R35: - C17 + C96 <= 0
 R36: C17 + C96 <= 2
 R37: C80 - C96 + C112 >= 0
 R38: - C80 + C96 + C112 >= 0
 R39: - C80 - C96 + C112 <= 0
 R40: C80 + C96 + C112 <= 2
 R41: - C112 + C128 = 0
 R42: C49 - C135 - C141 >= 0
 R43: C49 - C135 + C141 >= 0
 R44: C49 - C135 - C141 <= 0
 R45: C49 + C135 + C141 <= 2
 R46: - C49 + C130 + C144 >= 0
 R47: C49 - C130 + C144 >= 0
 R48: - C49 - C130 + C144 <= 0
 R49: C49 + C130 + C144 <= 2
 R50: C17 - C160 + C192 >= 0
 R51: - C17 + C160 + C192 >= 0
 R52: - C17 - C160 + C192 <= 0
 R53: C17 + C160 + C192 <= 2
 R54: C16 - C144 + C208 >= 0
 R55: - C16 + C144 + C208 >= 0
 R56: - C16 - C144 + C208 <= 0
 R57: C16 + C144 + C208 <= 2
 R58: - C1 + C177 = 0
 R59: - C19 + C97 >= 0
 R60: C19 + C97 >= 0
 R61: - C19 + C97 <= 0
 R62: C19 + C97 <= 2
 R63: C81 - C97 + C113 >= 0
 R64: - C81 + C97 + C113 >= 0
 R65: - C81 - C97 + C113 <= 0
 R66: C81 + C97 + C113 <= 2
 R67: - C113 + C129 = 0
 R68: C51 - C136 - C142 >= 0
 R69: C51 - C136 + C142 >= 0
 R70: C51 - C136 - C142 <= 0
 R71: C51 + C136 + C142 <= 2
 R72: - C51 + C131 + C145 >= 0
 R73: C51 - C131 + C145 >= 0
 R74: - C51 - C131 + C145 <= 0
 R75: C51 + C131 + C145 <= 2
 R76: C19 - C161 + C193 >= 0
 R77: - C19 + C161 + C193 >= 0
 R78: - C19 - C161 + C193 <= 0
 R79: C19 + C161 + C193 <= 2
 R80: C18 - C145 + C209 >= 0
 R81: - C18 + C145 + C209 >= 0
 R82: - C18 - C145 + C209 <= 0
 R83: C18 + C145 + C209 <= 2
 R84: - C2 + C178 = 0
 R85: - C21 + C98 >= 0
 R86: C21 + C98 >= 0
 R87: - C21 + C98 <= 0
 R88: C21 + C98 <= 2
 R89: C82 - C98 + C114 >= 0
 R90: - C82 + C98 + C114 >= 0
 R91: - C82 - C98 + C114 <= 0
 R92: C82 + C98 + C114 <= 2
 R93: - C52 + C114 + C130 >= 0
 R94: C52 - C114 + C130 >= 0
 R95: - C52 - C114 + C130 <= 0
 R96: C52 + C114 + C130 <= 2
 R97: C53 - C137 - C143 >= 0
 R98: C53 - C137 + C143 >= 0
 R99: C53 - C137 - C143 <= 0
 R100: C53 + C137 + C143 <= 2
 R101: - C53 + C132 + C146 >= 0
 R102: C53 - C132 + C146 >= 0
 R103: - C53 - C132 + C146 <= 0
 R104: C53 + C132 + C146 <= 2
 R105: C21 - C162 + C194 >= 0
 R106: - C21 + C162 + C194 >= 0
 R107: - C21 - C162 + C194 <= 0
 R108: C21 + C162 + C194 <= 2
 R109: C20 - C146 + C210 >= 0
 R110: - C20 + C146 + C210 >= 0
 R111: - C20 - C146 + C210 <= 0
 R112: C20 + C146 + C210 <= 2
 R113: - C3 + C179 = 0
 R114: - C23 + C99 >= 0
 R115: C23 + C99 >= 0
 R116: - C23 + C99 <= 0
 R117: C23 + C99 <= 2
 R118: C83 - C99 + C115 >= 0
 R119: - C83 + C99 + C115 >= 0
 R120: - C83 - C99 + C115 <= 0
 R121: C83 + C99 + C115 <= 2
 R122: - C54 + C115 + C131 >= 0
 R123: C54 - C115 + C131 >= 0
 R124: - C54 - C115 + C131 <= 0
 R125: C54 + C115 + C131 <= 2
 R126: C55 - C128 - C138 >= 0
 R127: C55 + C128 - C138 >= 0
 R128: C55 - C128 - C138 <= 0
 R129: C55 + C128 + C138 <= 2
 R130: - C55 + C133 + C147 >= 0
 R131: C55 - C133 + C147 >= 0
 R132: - C55 - C133 + C147 <= 0
 R133: C55 + C133 + C147 <= 2
 R134: C23 - C163 + C195 >= 0
 R135: - C23 + C163 + C195 >= 0
 R136: - C23 - C163 + C195 <= 0
 R137: C23 + C163 + C195 <= 2
 R138: C22 - C147 + C211 >= 0
 R139: - C22 + C147 + C211 >= 0
 R140: - C22 - C147 + C211 <= 0
 R141: C22 + C147 + C211 <= 2
 R142: - C4 + C180 = 0
 R143: - C25 + C100 >= 0
 R144: C25 + C100 >= 0
 R145: - C25 + C100 <= 0
 R146: C25 + C100 <= 2
 R147: C84 - C100 + C116 >= 0
 R148: - C84 + C100 + C116 >= 0
 R149: - C84 - C100 + C116 <= 0
 R150: C84 + C100 + C116 <= 2
 R151: - C56 + C116 + C132 >= 0
 R152: C56 - C116 + C132 >= 0
 R153: - C56 - C116 + C132 <= 0
 R154: C56 + C116 + C132 <= 2
 R155: C57 - C129 - C139 >= 0
 R156: C57 + C129 - C139 >= 0
 R157: C57 - C129 - C139 <= 0
 R158: C57 + C129 + C139 <= 2
 R159: - C57 + C134 + C148 >= 0
 R160: C57 - C134 + C148 >= 0
 R161: - C57 - C134 + C148 <= 0
 R162: C57 + C134 + C148 <= 2
 R163: C25 - C164 + C196 >= 0
 R164: - C25 + C164 + C196 >= 0
 R165: - C25 - C164 + C196 <= 0
 R166: C25 + C164 + C196 <= 2
 R167: C24 - C148 + C212 >= 0
 R168: - C24 + C148 + C212 >= 0
 R169: - C24 - C148 + C212 <= 0
 R170: C24 + C148 + C212 <= 2
 R171: - C5 + C181 = 0
 R172: - C27 + C101 >= 0
 R173: C27 + C101 >= 0
 R174: - C27 + C101 <= 0
 R175: C27 + C101 <= 2
 R176: C85 - C101 + C117 >= 0
 R177: - C85 + C101 + C117 >= 0
 R178: - C85 - C101 + C117 <= 0
 R179: C85 + C101 + C117 <= 2
 R180: - C58 + C117 + C133 >= 0
 R181: C58 - C117 + C133 >= 0
 R182: - C58 - C117 + C133 <= 0
 R183: C58 + C117 + C133 <= 2
 R184: C59 - C130 - C140 >= 0
 R185: C59 + C130 - C140 >= 0
 R186: C59 - C130 - C140 <= 0
 R187: C59 + C130 + C140 <= 2
 R188: - C59 + C135 + C149 >= 0
 R189: C59 - C135 + C149 >= 0
 R190: - C59 - C135 + C149 <= 0
 R191: C59 + C135 + C149 <= 2
 R192: C27 - C165 + C197 >= 0
 R193: - C27 + C165 + C197 >= 0
 R194: - C27 - C165 + C197 <= 0
 R195: C27 + C165 + C197 <= 2
 R196: C26 - C149 + C213 >= 0
 R197: - C26 + C149 + C213 >= 0
 R198: - C26 - C149 + C213 <= 0
 R199: C26 + C149 + C213 <= 2
 R200: - C6 + C182 = 0
 R201: - C29 + C102 >= 0
 R202: C29 + C102 >= 0
 R203: - C29 + C102 <= 0
 R204: C29 + C102 <= 2
 R205: C86 - C102 + C118 >= 0
 R206: - C86 + C102 + C118 >= 0
 R207: - C86 - C102 + C118 <= 0
 R208: C86 + C102 + C118 <= 2
 R209: - C60 + C118 + C134 >= 0
 R210: C60 - C118 + C134 >= 0
 R211: - C60 - C118 + C134 <= 0
 R212: C60 + C118 + C134 <= 2
 R213: C61 - C131 - C141 >= 0
 R214: C61 + C131 - C141 >= 0
 R215: C61 - C131 - C141 <= 0
 R216: C61 + C131 + C141 <= 2
 R217: - C61 + C136 + C150 >= 0
 R218: C61 - C136 + C150 >= 0
 R219: - C61 - C136 + C150 <= 0
 R220: C61 + C136 + C150 <= 2
 R221: C29 - C166 + C198 >= 0
 R222: - C29 + C166 + C198 >= 0
 R223: - C29 - C166 + C198 <= 0
 R224: C29 + C166 + C198 <= 2
 R225: C28 - C150 + C214 >= 0
 R226: - C28 + C150 + C214 >= 0
 R227: - C28 - C150 + C214 <= 0
 R228: C28 + C150 + C214 <= 2
 R229: - C7 + C183 = 0
 R230: - C31 + C103 >= 0
 R231: C31 + C103 >= 0
 R232: - C31 + C103 <= 0
 R233: C31 + C103 <= 2
 R234: C87 - C103 + C119 >= 0
 R235: - C87 + C103 + C119 >= 0
 R236: - C87 - C103 + C119 <= 0
 R237: C87 + C103 + C119 <= 2
 R238: - C62 + C119 + C135 >= 0
 R239: C62 - C119 + C135 >= 0
 R240: - C62 - C119 + C135 <= 0
 R241: C62 + C119 + C135 <= 2
 R242: C63 - C132 - C142 >= 0
 R243: C63 + C132 - C142 >= 0
 R244: C63 - C132 - C142 <= 0
 R245: C63 + C132 + C142 <= 2
 R246: - C63 + C137 + C151 >= 0
 R247: C63 - C137 + C151 >= 0
 R248: - C63 - C137 + C151 <= 0
 R249: C63 + C137 + C151 <= 2
 R250: C31 - C167 + C199 >= 0
 R251: - C31 + C167 + C199 >= 0
 R252: - C31 - C167 + C199 <= 0
 R253: C31 + C167 + C199 <= 2
 R254: C30 - C151 + C215 >= 0
 R255: - C30 + C151 + C215 >= 0
 R256: - C30 - C151 + C215 <= 0
 R257: C30 + C151 + C215 <= 2
 R258: - C8 + C184 = 0
 R259: - C33 + C104 >= 0
 R260: C33 + C104 >= 0
 R261: - C33 + C104 <= 0
 R262: C33 + C104 <= 2
 R263: C88 - C104 + C120 >= 0
 R264: - C88 + C104 + C120 >= 0
 R265: - C88 - C104 + C120 <= 0
 R266: C88 + C104 + C120 <= 2
 R267: - C64 + C120 + C136 >= 0
 R268: C64 - C120 + C136 >= 0
 R269: - C64 - C120 + C136 <= 0
 R270: C64 + C120 + C136 <= 2
 R271: C65 - C133 - C143 >= 0
 R272: C65 + C133 - C143 >= 0
 R273: C65 - C133 - C143 <= 0
 R274: C65 + C133 + C143 <= 2
 R275: - C65 + C138 + C152 >= 0
 R276: C65 - C138 + C152 >= 0
 R277: - C65 - C138 + C152 <= 0
 R278: C65 + C138 + C152 <= 2
 R279: C33 - C168 + C200 >= 0
 R280: - C33 + C168 + C200 >= 0
 R281: - C33 - C168 + C200 <= 0
 R282: C33 + C168 + C200 <= 2
 R283: C32 - C152 + C216 >= 0
 R284: - C32 + C152 + C216 >= 0
 R285: - C32 - C152 + C216 <= 0
 R286: C32 + C152 + C216 <= 2
 R287: - C9 + C185 = 0
 R288: - C35 + C105 >= 0
 R289: C35 + C105 >= 0
 R290: - C35 + C105 <= 0
 R291: C35 + C105 <= 2
 R292: C89 - C105 + C121 >= 0
 R293: - C89 + C105 + C121 >= 0
 R294: - C89 - C105 + C121 <= 0
 R295: C89 + C105 + C121 <= 2
 R296: - C66 + C121 + C137 >= 0
 R297: C66 - C121 + C137 >= 0
 R298: - C66 - C121 + C137 <= 0
 R299: C66 + C121 + C137 <= 2
 R300: C67 - C128 - C134 >= 0
 R301: C67 - C128 + C134 >= 0
 R302: C67 - C128 - C134 <= 0
 R303: C67 + C128 + C134 <= 2
 R304: - C67 + C139 + C153 >= 0
 R305: C67 - C139 + C153 >= 0
 R306: - C67 - C139 + C153 <= 0
 R307: C67 + C139 + C153 <= 2
 R308: C35 - C169 + C201 >= 0
 R309: - C35 + C169 + C201 >= 0
 R310: - C35 - C169 + C201 <= 0
 R311: C35 + C169 + C201 <= 2
 R312: C34 - C153 + C217 >= 0
 R313: - C34 + C153 + C217 >= 0
 R314: - C34 - C153 + C217 <= 0
 R315: C34 + C153 + C217 <= 2
 R316: - C10 + C186 = 0
 R317: - C37 + C106 >= 0
 R318: C37 + C106 >= 0
 R319: - C37 + C106 <= 0
 R320: C37 + C106 <= 2
 R321: C90 - C106 + C122 >= 0
 R322: - C90 + C106 + C122 >= 0
 R323: - C90 - C106 + C122 <= 0
 R324: C90 + C106 + C122 <= 2
 R325: - C68 + C122 + C138 >= 0
 R326: C68 - C122 + C138 >= 0
 R327: - C68 - C122 + C138 <= 0
 R328: C68 + C122 + C138 <= 2
 R329: C69 - C129 - C135 >= 0
 R330: C69 - C129 + C135 >= 0
 R331: C69 - C129 - C135 <= 0
 R332: C69 + C129 + C135 <= 2
 R333: - C69 + C140 + C154 >= 0
 R334: C69 - C140 + C154 >= 0
 R335: - C69 - C140 + C154 <= 0
 R336: C69 + C140 + C154 <= 2
 R337: C37 - C170 + C202 >= 0
 R338: - C37 + C170 + C202 >= 0
 R339: - C37 - C170 + C202 <= 0
 R340: C37 + C170 + C202 <= 2
 R341: C36 - C154 + C218 >= 0
 R342: - C36 + C154 + C218 >= 0
 R343: - C36 - C154 + C218 <= 0
 R344: C36 + C154 + C218 <= 2
 R345: - C11 + C187 = 0
 R346: - C39 + C107 >= 0
 R347: C39 + C107 >= 0
 R348: - C39 + C107 <= 0
 R349: C39 + C107 <= 2
 R350: C91 - C107 + C123 >= 0
 R351: - C91 + C107 + C123 >= 0
 R352: - C91 - C107 + C123 <= 0
 R353: C91 + C107 + C123 <= 2
 R354: - C70 + C123 + C139 >= 0
 R355: C70 - C123 + C139 >= 0
 R356: - C70 - C123 + C139 <= 0
 R357: C70 + C123 + C139 <= 2
 R358: C71 - C130 - C136 >= 0
 R359: C71 - C130 + C136 >= 0
 R360: C71 - C130 - C136 <= 0
 R361: C71 + C130 + C136 <= 2
 R362: - C71 + C141 + C155 >= 0
 R363: C71 - C141 + C155 >= 0
 R364: - C71 - C141 + C155 <= 0
 R365: C71 + C141 + C155 <= 2
 R366: C39 - C171 + C203 >= 0
 R367: - C39 + C171 + C203 >= 0
 R368: - C39 - C171 + C203 <= 0
 R369: C39 + C171 + C203 <= 2
 R370: C38 - C155 + C219 >= 0
 R371: - C38 + C155 + C219 >= 0
 R372: - C38 - C155 + C219 <= 0
 R373: C38 + C155 + C219 <= 2
 R374: - C12 + C188 = 0
 R375: - C41 + C108 >= 0
 R376: C41 + C108 >= 0
 R377: - C41 + C108 <= 0
 R378: C41 + C108 <= 2
 R379: C92 - C108 + C124 >= 0
 R380: - C92 + C108 + C124 >= 0
 R381: - C92 - C108 + C124 <= 0
 R382: C92 + C108 + C124 <= 2
 R383: - C72 + C124 + C140 >= 0
 R384: C72 - C124 + C140 >= 0
 R385: - C72 - C124 + C140 <= 0
 R386: C72 + C124 + C140 <= 2
 R387: C73 - C131 - C137 >= 0
 R388: C73 - C131 + C137 >= 0
 R389: C73 - C131 - C137 <= 0
 R390: C73 + C131 + C137 <= 2
 R391: - C73 + C142 + C156 >= 0
 R392: C73 - C142 + C156 >= 0
 R393: - C73 - C142 + C156 <= 0
 R394: C73 + C142 + C156 <= 2
 R395: C41 - C172 + C204 >= 0
 R396: - C41 + C172 + C204 >= 0
 R397: - C41 - C172 + C204 <= 0
 R398: C41 + C172 + C204 <= 2
 R399: C40 - C156 + C220 >= 0
 R400: - C40 + C156 + C220 >= 0
 R401: - C40 - C156 + C220 <= 0
 R402: C40 + C156 + C220 <= 2
 R403: - C13 + C189 = 0
 R404: - C43 + C109 >= 0
 R405: C43 + C109 >= 0
 R406: - C43 + C109 <= 0
 R407: C43 + C109 <= 2
 R408: C93 - C109 + C125 >= 0
 R409: - C93 + C109 + C125 >= 0
 R410: - C93 - C109 + C125 <= 0
 R411: C93 + C109 + C125 <= 2
 R412: - C74 + C125 + C141 >= 0
 R413: C74 - C125 + C141 >= 0
 R414: - C74 - C125 + C141 <= 0
 R415: C74 + C125 + C141 <= 2
 R416: C75 - C132 - C138 >= 0
 R417: C75 - C132 + C138 >= 0
 R418: C75 - C132 - C138 <= 0
 R419: C75 + C132 + C138 <= 2
 R420: - C75 + C143 + C157 >= 0
 R421: C75 - C143 + C157 >= 0
 R422: - C75 - C143 + C157 <= 0
 R423: C75 + C143 + C157 <= 2
 R424: C43 - C173 + C205 >= 0
 R425: - C43 + C173 + C205 >= 0
 R426: - C43 - C173 + C205 <= 0
 R427: C43 + C173 + C205 <= 2
 R428: C42 - C157 + C221 >= 0
 R429: - C42 + C157 + C221 >= 0
 R430: - C42 - C157 + C221 <= 0
 R431: C42 + C157 + C221 <= 2
 R432: - C14 + C190 = 0
 R433: - C45 + C110 >= 0
 R434: C45 + C110 >= 0
 R435: - C45 + C110 <= 0
 R436: C45 + C110 <= 2
 R437: C94 - C110 + C126 >= 0
 R438: - C94 + C110 + C126 >= 0
 R439: - C94 - C110 + C126 <= 0
 R440: C94 + C110 + C126 <= 2
 R441: - C76 + C126 + C142 >= 0
 R442: C76 - C126 + C142 >= 0
 R443: - C76 - C126 + C142 <= 0
 R444: C76 + C126 + C142 <= 2
 R445: C77 - C133 - C139 >= 0
 R446: C77 - C133 + C139 >= 0
 R447: C77 - C133 - C139 <= 0
 R448: C77 + C133 + C139 <= 2
 R449: - C77 + C128 + C158 >= 0
 R450: C77 - C128 + C158 >= 0
 R451: - C77 - C128 + C158 <= 0
 R452: C77 + C128 + C158 <= 2
 R453: C45 - C174 + C206 >= 0
 R454: - C45 + C174 + C206 >= 0
 R455: - C45 - C174 + C206 <= 0
 R456: C45 + C174 + C206 <= 2
 R457: C44 - C158 + C222 >= 0
 R458: - C44 + C158 + C222 >= 0
 R459: - C44 - C158 + C222 <= 0
 R460: C44 + C158 + C222 <= 2
 R461: - C15 + C191 = 0
 R462: - C47 + C111 >= 0
 R463: C47 + C111 >= 0
 R464: - C47 + C111 <= 0
 R465: C47 + C111 <= 2
 R466: C95 - C111 + C127 >= 0
 R467: - C95 + C111 + C127 >= 0
 R468: - C95 - C111 + C127 <= 0
 R469: C95 + C111 + C127 <= 2
 R470: - C78 + C127 + C143 >= 0
 R471: C78 - C127 + C143 >= 0
 R472: - C78 - C127 + C143 <= 0
 R473: C78 + C127 + C143 <= 2
 R474: C79 - C134 - C140 >= 0
 R475: C79 - C134 + C140 >= 0
 R476: C79 - C134 - C140 <= 0
 R477: C79 + C134 + C140 <= 2
 R478: - C79 + C129 + C159 >= 0
 R479: C79 - C129 + C159 >= 0
 R480: - C79 - C129 + C159 <= 0
 R481: C79 + C129 + C159 <= 2
 R482: C47 - C175 + C207 >= 0
 R483: - C47 + C175 + C207 >= 0
 R484: - C47 - C175 + C207 <= 0
 R485: C47 + C175 + C207 <= 2
 R486: C46 - C159 + C223 >= 0
 R487: - C46 + C159 + C223 >= 0
 R488: - C46 - C159 + C223 <= 0
 R489: C46 + C159 + C223 <= 2
 R490: C192 = 1
 R491: C208 = 1
 R492: C193 = 1
 R493: C209 = 0
 R494: C194 = 0
 R495: C210 = 1
 R496: C195 = 0
 R497: C211 = 1
 R498: C196 = 1
 R499: C212 = 1
 R500: C197 = 1
 R501: C213 = 0
 R502: C198 = 0
 R503: C214 = 1
 R504: C199 = 0
 R505: C215 = 0
 R506: C200 = 1
 R507: C216 = 1
 R508: C201 = 1
 R509: C217 = 0
 R510: C202 = 0
 R511: C218 = 0
 R512: C203 = 0
 R513: C219 = 1
 R514: C204 = 1
 R515: C220 = 1
 R516: C205 = 1
 R517: C221 = 0
 R518: C206 = 0
 R519: C222 = 0
 R520: C207 = 0
 R521: C223 = 0
 qc0: C80 + [ - C16 * C176 ] = 0
 qc1: C160 + [ - C144 * C176 ] = 0
 qc2: C81 + [ - C18 * C177 ] = 0
 qc3: C161 + [ - C145 * C177 ] = 0
 qc4: C82 + [ - C20 * C178 ] = 0
 qc5: C52 + [ - C112 * C113 ] = 0
 qc6: C162 + [ - C146 * C178 ] = 0
 qc7: C83 + [ - C22 * C179 ] = 0
 qc8: C54 + [ - C113 * C114 ] = 0
 qc9: C163 + [ - C147 * C179 ] = 0
 qc10: C84 + [ - C24 * C180 ] = 0
 qc11: C56 + [ - C114 * C115 ] = 0
 qc12: C164 + [ - C148 * C180 ] = 0
 qc13: C85 + [ - C26 * C181 ] = 0
 qc14: C58 + [ - C115 * C116 ] = 0
 qc15: C165 + [ - C149 * C181 ] = 0
 qc16: C86 + [ - C28 * C182 ] = 0
 qc17: C60 + [ - C116 * C117 ] = 0
 qc18: C166 + [ - C150 * C182 ] = 0
 qc19: C87 + [ - C30 * C183 ] = 0
 qc20: C62 + [ - C117 * C118 ] = 0
 qc21: C167 + [ - C151 * C183 ] = 0
 qc22: C88 + [ - C32 * C184 ] = 0
 qc23: C64 + [ - C118 * C119 ] = 0
 qc24: C168 + [ - C152 * C184 ] = 0
 qc25: C89 + [ - C34 * C185 ] = 0
 qc26: C66 + [ - C119 * C120 ] = 0
 qc27: C169 + [ - C153 * C185 ] = 0
 qc28: C90 + [ - C36 * C186 ] = 0
 qc29: C68 + [ - C120 * C121 ] = 0
 qc30: C170 + [ - C154 * C186 ] = 0
 qc31: C91 + [ - C38 * C187 ] = 0
 qc32: C70 + [ - C121 * C122 ] = 0
 qc33: C171 + [ - C155 * C187 ] = 0
 qc34: C92 + [ - C40 * C188 ] = 0
 qc35: C72 + [ - C122 * C123 ] = 0
 qc36: C172 + [ - C156 * C188 ] = 0
 qc37: C93 + [ - C42 * C189 ] = 0
 qc38: C74 + [ - C123 * C124 ] = 0
 qc39: C173 + [ - C157 * C189 ] = 0
 qc40: C94 + [ - C44 * C190 ] = 0
 qc41: C76 + [ - C124 * C125 ] = 0
 qc42: C174 + [ - C158 * C190 ] = 0
 qc43: C95 + [ - C46 * C191 ] = 0
 qc44: C78 + [ - C125 * C126 ] = 0
 qc45: C175 + [ - C159 * C191 ] = 0
Bounds
Binaries
 C0 C1 C2 C3 C4 C5 C6 C7 C8 C9 C10 C11 C12 C13 C14 C15 C16 C17 C18 C19 C20
 C21 C22 C23 C24 C25 C26 C27 C28 C29 C30 C31 C32 C33 C34 C35 C36 C37 C38
 C39 C40 C41 C42 C43 C44 C45 C46 C47 C48 C49 C50 C51 C52 C53 C54 C55 C56
 C57 C58 C59 C60 C61 C62 C63 C64 C65 C66 C67 C68 C69 C70 C71 C72 C73 C74
 C75 C76 C77 C78 C79 C80 C81 C82 C83 C84 C85 C86 C87 C88 C89 C90 C91 C92
 C93 C94 C95 C96 C97 C98 C99 C100 C101 C102 C103 C104 C105 C106 C107 C108
 C109 C110 C111 C112 C113 C114 C115 C116 C117 C118 C119 C120 C121 C122 C123
 C124 C125 C126 C127 C128 C129 C130 C131 C132 C133 C134 C135 C136 C137 C138
 C139 C140 C141 C142 C143 C144 C145 C146 C147 C148 C149 C150 C151 C152 C153
 C154 C155 C156 C157 C158 C159 C160 C161 C162 C163 C164 C165 C166 C167 C168
 C169 C170 C171 C172 C173 C174 C175 C176 C177 C178 C179 C180 C181 C182 C183
 C184 C185 C186 C187 C188 C189 C190 C191 C192 C193 C194 C195 C196 C197 C198
 C199 C200 C201 C202 C203 C204 C205 C206 C207 C208 C209 C210 C211 C212 C213
 C214 C215 C216 C217 C218 C219 C220 C221 C222 C223
End
